
Gurobi 9.1.2 (win64) logging started Sat Sep 25 17:57:45 2021

Changed value of parameter LogFile to ../results/logs/log_samuel_kroger_2021_09_25_17_57_00.csv_33_250.log
   Prev:   Default: 
Changed value of parameter method to 3
   Prev: -1  Min: -1  Max: 5  Default: -1
Gurobi Optimizer version 9.1.2 build v9.1.2rc0 (win64)
Thread count: 6 physical cores, 12 logical processors, using up to 12 threads
Optimize a model with 9501 rows, 27764 columns and 128742 nonzeros
Model fingerprint: 0x66660f42
Variable types: 0 continuous, 27764 integer (27764 binary)
Coefficient statistics:
  Matrix range     [1e+00, 2e+01]
  Objective range  [1e+00, 1e+00]
  Bounds range     [1e+00, 1e+00]
  RHS range        [1e+00, 3e+02]
Found heuristic solution: objective -0.0000000
Presolve removed 7058 rows and 22259 columns
Presolve time: 0.08s
Presolved: 2443 rows, 5505 columns, 28996 nonzeros
Variable types: 0 continuous, 5505 integer (5094 binary)

Concurrent LP optimizer: primal simplex, dual simplex, and barrier
Showing barrier log only...

Root barrier log...

Ordering time: 0.07s

Barrier statistics:
 AA' NZ     : 3.273e+04
 Factor NZ  : 3.000e+05 (roughly 6 MBytes of memory)
 Factor Ops : 9.656e+07 (less than 1 second per iteration)
 Threads    : 4

                  Objective                Residual
Iter       Primal          Dual         Primal    Dual     Compl     Time
   0   1.00447218e+04  6.65230095e+03  2.21e+04 8.41e-01  2.72e+01     0s
   1   2.68521805e+03  9.75191467e+03  5.26e+03 8.14e-01  6.86e+00     0s
   2   6.40878564e+02  7.08786443e+03  3.53e+02 1.95e-14  8.12e-01     0s
   3   6.54395050e+02  2.55538562e+03  3.86e+01 2.66e-15  1.67e-01     0s
   4   7.97418394e+02  1.38693270e+03  1.41e-01 2.78e-15  4.39e-02     0s
   5   8.76207218e+02  1.19552527e+03  2.83e-02 1.73e-15  2.38e-02     0s
   6   8.81906867e+02  1.10905745e+03  2.47e-02 1.47e-15  1.69e-02     0s
   7   9.04019500e+02  1.04130796e+03  1.21e-02 1.33e-15  1.02e-02     0s
   8   9.15999612e+02  1.00156754e+03  6.93e-03 1.33e-15  6.37e-03     0s
   9   9.24435953e+02  9.74765366e+02  3.95e-03 9.68e-16  3.75e-03     0s
  10   9.34750336e+02  9.55762464e+02  6.13e-04 1.33e-15  1.56e-03     0s
  11   9.37209201e+02  9.43258648e+02  1.81e-04 8.88e-16  4.50e-04     0s
  12   9.37881809e+02  9.40214247e+02  9.53e-05 1.36e-15  1.74e-04     0s
  13   9.38069738e+02  9.39793006e+02  7.17e-05 1.11e-15  1.28e-04     0s
  14   9.38469269e+02  9.39294102e+02  2.70e-05 1.21e-15  6.14e-05     0s
  15   9.38635011e+02  9.38714978e+02  5.47e-06 1.36e-15  5.96e-06     0s
  16   9.38682271e+02  9.38692044e+02  2.15e-07 1.33e-15  7.28e-07     0s
  17   9.38686424e+02  9.38686718e+02  0.00e+00 1.28e-15  2.19e-08     0s
  18   9.38686445e+02  9.38686446e+02  0.00e+00 1.28e-15  2.19e-11     0s

Barrier solved model in 18 iterations and 0.34 seconds
Optimal objective 9.38686445e+02


Solved with dual simplex

Root relaxation: objective 9.386864e+02, 3303 iterations, 0.24 seconds

    Nodes    |    Current Node    |     Objective Bounds      |     Work
 Expl Unexpl |  Obj  Depth IntInf | Incumbent    BestBd   Gap | It/Node Time

     0     0  938.68645    0  916   -0.00000  938.68645      -     -    0s
H    0     0                     191.0000000  938.68645   391%     -    0s
H    0     0                     211.0000000  938.68645   345%     -    0s
H    0     0                     219.0000000  938.68645   329%     -    2s
H    0     0                     386.0000000  938.68645   143%     -    2s
H    0     0                     387.0000000  938.68645   143%     -    2s
H    0     0                     391.0000000  938.68645   140%     -    2s
H    0     0                     460.0000000  938.68645   104%     -    2s
H    0     0                     479.0000000  938.68645  96.0%     -    2s
H    0     0                     486.0000000  938.68645  93.1%     -    2s
H    0     0                     494.0000000  938.68645  90.0%     -    2s
H    0     0                     498.0000000  938.68645  88.5%     -    2s
H    0     0                     504.0000000  938.68645  86.2%     -    2s
H    0     0                     505.0000000  794.23557  57.3%     -    4s
H    0     0                     508.0000000  794.23557  56.3%     -    4s
H    0     0                     511.0000000  794.23557  55.4%     -    4s
H    0     0                     513.0000000  794.23557  54.8%     -    4s
H    0     0                     514.0000000  794.23557  54.5%     -    4s
H    0     0                     520.0000000  794.23557  52.7%     -    4s
H    0     0                     521.0000000  794.23557  52.4%     -    4s
     0     0  767.24849    0 1311  521.00000  767.24849  47.3%     -    4s
H    0     0                     530.0000000  767.24849  44.8%     -    4s
     0     0  755.24968    0 1352  530.00000  755.24968  42.5%     -    5s
     0     0  725.92433    0 1382  530.00000  725.92433  37.0%     -    6s
     0     0  725.92433    0 1392  530.00000  725.92433  37.0%     -    6s
     0     0  725.92433    0 1391  530.00000  725.92433  37.0%     -    6s
H    0     0                     531.0000000  725.92433  36.7%     -   10s
H    0     0                     533.0000000  725.92433  36.2%     -   10s
H    0     0                     535.0000000  725.92433  35.7%     -   10s
H    0     0                     537.0000000  725.92433  35.2%     -   10s
     0     0  703.37910    0 1532  537.00000  703.37910  31.0%     -   10s
H    0     0                     538.0000000  703.37910  30.7%     -   12s
     0     0  687.97328    0 1583  538.00000  687.97328  27.9%     -   12s
H    0     0                     539.0000000  687.97328  27.6%     -   14s
H    0     0                     543.0000000  687.97328  26.7%     -   14s
     0     0  683.57380    0 1651  543.00000  683.57380  25.9%     -   14s
     0     0  682.30930    0 1632  543.00000  682.30930  25.7%     -   15s
     0     0  681.88494    0 1648  543.00000  681.88494  25.6%     -   16s
     0     0  681.69532    0 1676  543.00000  681.69532  25.5%     -   16s
H    0     0                     544.0000000  681.69532  25.3%     -   22s
H    0     0                     546.0000000  681.69532  24.9%     -   22s
H    0     0                     548.0000000  681.69532  24.4%     -   22s
     0     0  669.64490    0 1732  548.00000  669.64490  22.2%     -   22s
